4 92 195 31 85 165 177 128 56 45 108 53 168 65 99 94 151 38 32 23 117 112 160 109 189 125 86 114 52 74 101 192 50 33 157 
84 199 127 88 155 118 105 69 176 113 191 134 58 144 71 87 137 123 115 121 11 13 8 1 60 75 175 
140 54 100 37 9 12 59 143 40 16 98 119 173 188 29 89 139 21 166 129 106 22 41 194 55 81 107 17 174 97 30 64 67 
142 182 57 133 147 169 24 49 14 132 78 3 43 180 136 171 130 187 150 79 73 93 193 19 146 83 148 36 
153 47 48 131 15 156 152 167 7 179 102 124 200 103 68 18 196 183 184 190 61 161 72 27 51 198 111 110 90 44 95 145 91 80 116 178 126 70 158 66 82 154 
163 28 6 162 63 149 42 172 197 5 181 35 170 104 164 62 159 20 26 10 25 77 122 46 138 186 135 96 34 76 2 141 185 120 39 
